p cnf 688 2266
a 2 3 4 5 6 7 8 12 17 19 21 22 23 26 28 30 31 33 35 37 38 40 42 44 46 48 50 52 55 56 63 65 69 73 75 77 81 88 93 98 101 102 109 110 114 118 119 122 126 130 132 134 136 138 139 143 147 149 153 157 162 164 168 0
e 1 9 10 11 13 14 15 16 18 20 24 25 27 29 32 34 36 39 41 43 45 47 49 51 53 54 57 58 59 60 61 62 64 66 67 68 70 71 72 74 76 78 79 80 82 83 84 85 86 87 89 90 91 92 94 95 96 97 99 100 103 104 105 106 107 108 111 112 113 115 116 117 120 121 123 124 125 127 128 129 131 133 135 137 140 141 142 144 145 146 148 150 151 152 154 155 156 158 159 160 161 163 165 166 167 169 170 171 172 173 174 175 176 177 178 179 180 181 182 183 184 185 186 187 188 189 190 191 192 193 194 195 196 197 198 199 200 201 202 203 204 205 206 207 208 209 210 211 212 213 214 215 216 217 218 219 220 221 222 223 224 225 226 227 228 229 230 231 232 233 234 235 236 237 238 239 240 241 242 243 244 245 246 247 248 249 250 251 252 253 254 255 256 257 258 259 260 261 262 263 264 265 266 267 268 269 270 271 272 273 274 275 276 277 278 279 280 281 282 283 284 285 286 287 288 289 290 291 292 293 294 295 296 297 298 299 300 301 302 303 304 305 306 307 308 309 310 311 312 313 314 315 316 317 318 319 320 321 322 323 324 325 326 327 328 329 330 331 332 333 334 335 336 337 338 339 340 341 342 343 344 345 346 347 348 349 350 351 352 353 354 355 356 357 358 359 360 361 362 363 364 365 366 367 368 369 370 371 372 373 374 375 376 377 378 379 380 381 382 383 384 385 386 387 388 389 390 391 392 393 394 395 396 397 398 399 400 401 402 403 404 405 406 407 408 409 410 411 412 413 414 415 416 417 418 419 420 421 422 423 424 425 426 427 428 429 430 431 432 433 434 435 436 437 438 439 440 441 442 443 444 445 446 447 448 449 450 451 452 453 454 455 456 457 458 459 460 461 462 463 464 465 466 467 468 469 470 471 472 473 474 475 476 477 478 479 480 481 482 483 484 485 486 487 488 489 490 491 492 493 494 495 496 497 498 499 500 501 502 503 504 505 506 507 508 509 510 511 512 513 514 515 516 517 518 519 520 521 522 523 524 525 526 527 528 529 530 531 532 533 534 535 536 537 538 539 540 541 542 543 544 545 546 547 548 549 550 551 552 553 554 555 556 557 558 559 560 561 562 563 564 565 566 567 568 569 570 571 572 573 574 575 576 577 578 579 580 581 582 583 584 585 586 587 588 589 590 591 592 593 594 595 596 597 598 599 600 601 602 603 604 605 606 607 608 609 610 611 612 613 614 615 616 617 618 619 620 621 622 623 624 625 626 627 628 629 630 631 632 633 634 635 636 637 638 639 640 641 642 643 644 645 646 647 648 649 650 651 652 653 654 655 656 657 658 659 660 661 662 663 664 665 666 667 668 669 670 671 672 673 674 675 676 677 678 679 680 681 682 683 684 685 686 687 688 0
1 0
7 -9 0
8 -9 0
-7 -8 9 0
7 -10 0
-8 -10 0
-7 8 10 0
7 11 0
-9 11 0
-10 11 0
-7 9 10 -11 0
-12 13 0
12 13 0
6 -14 0
11 -14 0
13 -14 0
-6 -11 -13 14 0
-6 -15 0
11 -15 0
6 -11 15 0
-14 16 0
-15 16 0
14 15 -16 0
-17 18 0
17 18 0
-19 20 0
19 20 0
22 -24 0
-23 -24 0
-22 23 24 0
22 25 0
-24 25 0
-22 24 -25 0
-26 27 0
26 27 0
27 -29 0
28 -29 0
-27 -28 29 0
-31 32 0
31 32 0
32 -34 0
-33 -34 0
-32 33 34 0
32 -36 0
33 -36 0
35 -36 0
-32 -33 -35 36 0
32 -39 0
33 -39 0
-35 -39 0
37 -39 0
38 -39 0
-32 -33 35 -37 -38 39 0
32 -41 0
33 -41 0
-35 -41 0
37 -41 0
-38 -41 0
-40 -41 0
-32 -33 35 -37 38 40 41 0
32 -43 0
33 -43 0
-35 -43 0
-37 -43 0
-42 -43 0
-32 -33 35 37 42 43 0
32 -45 0
33 -45 0
-35 -45 0
-37 -45 0
42 -45 0
44 -45 0
-32 -33 35 37 -42 -44 45 0
32 -47 0
33 -47 0
-35 -47 0
37 -47 0
-38 -47 0
40 -47 0
46 -47 0
-32 -33 35 -37 38 -40 -46 47 0
32 -49 0
33 -49 0
-35 -49 0
37 -49 0
-38 -49 0
40 -49 0
-46 -49 0
48 -49 0
-32 -33 35 -37 38 -40 46 -48 49 0
-50 51 0
50 51 0
32 -53 0
33 -53 0
-35 -53 0
-37 -53 0
42 -53 0
-44 -53 0
51 -53 0
52 -53 0
-32 -33 35 37 -42 44 -51 -52 53 0
32 -54 0
33 -54 0
-35 -54 0
-37 -54 0
42 -54 0
-44 -54 0
51 -54 0
-52 -54 0
-32 -33 35 37 -42 44 -51 52 54 0
55 -57 0
56 -57 0
-55 -56 57 0
55 -58 0
-56 -58 0
-55 56 58 0
55 59 0
-57 59 0
-58 59 0
-55 57 58 -59 0
32 -60 0
33 -60 0
-35 -60 0
37 -60 0
-38 -60 0
40 -60 0
-46 -60 0
-48 -60 0
59 -60 0
-32 -33 35 -37 38 -40 46 48 -59 60 0
-34 61 0
-36 61 0
-39 61 0
-41 61 0
-43 61 0
-45 61 0
-47 61 0
-49 61 0
-53 61 0
-54 61 0
-60 61 0
34 36 39 41 43 45 47 49 53 54 60 -61 0
27 -62 0
-28 -62 0
-30 -62 0
61 -62 0
-27 28 30 -61 62 0
27 -64 0
-28 -64 0
30 -64 0
-63 -64 0
-27 28 -30 63 64 0
27 -66 0
-28 -66 0
30 -66 0
63 -66 0
-65 -66 0
-27 28 -30 -63 65 66 0
27 -67 0
-28 -67 0
30 -67 0
63 -67 0
65 -67 0
-27 28 -30 -63 -65 67 0
-62 68 0
-64 68 0
-66 68 0
-67 68 0
62 64 66 67 -68 0
68 -70 0
69 -70 0
-68 -69 70 0
68 -71 0
-69 -71 0
-68 69 71 0
-29 72 0
-70 72 0
-71 72 0
29 70 71 -72 0
-73 74 0
73 74 0
21 -76 0
25 -76 0
72 -76 0
74 -76 0
75 -76 0
-21 -25 -72 -74 -75 76 0
-77 78 0
77 78 0
21 -79 0
25 -79 0
72 -79 0
74 -79 0
-75 -79 0
78 -79 0
-21 -25 -72 -74 75 -78 79 0
-76 80 0
-79 80 0
76 79 -80 0
80 -82 0
81 -82 0
-80 -81 82 0
80 -83 0
-81 -83 0
-80 81 83 0
21 84 0
-82 84 0
-83 84 0
-21 82 83 -84 0
5 -85 0
16 -85 0
18 -85 0
20 -85 0
84 -85 0
-5 -16 -18 -20 -84 85 0
-5 -86 0
16 -86 0
18 -86 0
20 -86 0
5 -16 -18 -20 86 0
-85 87 0
-86 87 0
85 86 -87 0
88 89 0
-88 89 0
4 -90 0
87 -90 0
89 -90 0
-4 -87 -89 90 0
-4 -91 0
87 -91 0
4 -87 91 0
-90 92 0
-91 92 0
90 91 -92 0
93 94 0
-93 94 0
3 -95 0
92 -95 0
94 -95 0
-3 -92 -94 95 0
-3 -96 0
92 -96 0
3 -92 96 0
-95 97 0
-96 97 0
95 96 -97 0
98 99 0
-98 99 0
2 -100 0
97 -100 0
99 -100 0
-2 -97 -99 100 0
102 103 0
-102 103 0
101 -104 0
97 -104 0
103 -104 0
-101 -97 -103 104 0
-101 -105 0
97 -105 0
101 -97 105 0
-104 106 0
-105 106 0
104 105 -106 0
-2 -107 0
106 -107 0
2 -106 107 0
-100 108 0
-107 108 0
100 107 -108 0
109 -111 0
110 -111 0
-109 -110 111 0
109 -112 0
-110 -112 0
-109 110 112 0
-111 113 0
-112 113 0
111 112 -113 0
113 -115 0
114 -115 0
-113 -114 115 0
113 -116 0
-114 -116 0
-113 114 116 0
-115 117 0
-116 117 0
115 116 -117 0
117 -120 0
-118 -120 0
119 -120 0
-117 118 -119 120 0
117 -121 0
-118 -121 0
-119 -121 0
-117 118 119 121 0
117 -123 0
118 -123 0
122 -123 0
-117 -118 -122 123 0
117 -124 0
118 -124 0
-122 -124 0
-117 -118 122 124 0
-120 125 0
-121 125 0
-123 125 0
-124 125 0
120 121 123 124 -125 0
125 -127 0
126 -127 0
-125 -126 127 0
125 -128 0
-126 -128 0
-125 126 128 0
-127 129 0
-128 129 0
127 128 -129 0
129 -131 0
130 -131 0
-129 -130 131 0
129 -133 0
-130 -133 0
132 -133 0
-129 130 -132 133 0
129 -135 0
-130 -135 0
-132 -135 0
134 -135 0
-129 130 132 -134 135 0
129 -137 0
-130 -137 0
-132 -137 0
-134 -137 0
136 -137 0
-129 130 132 134 -136 137 0
129 -140 0
-130 -140 0
-132 -140 0
-134 -140 0
-136 -140 0
138 -140 0
139 -140 0
-129 130 132 134 136 -138 -139 140 0
129 -141 0
-130 -141 0
-132 -141 0
-134 -141 0
-136 -141 0
138 -141 0
-139 -141 0
-129 130 132 134 136 -138 139 141 0
-140 142 0
-141 142 0
140 141 -142 0
142 -144 0
143 -144 0
-142 -143 144 0
142 -145 0
-143 -145 0
-142 143 145 0
-144 146 0
-145 146 0
144 145 -146 0
146 -148 0
147 -148 0
-146 -147 148 0
129 -150 0
-130 -150 0
-132 -150 0
-134 -150 0
-136 -150 0
-138 -150 0
149 -150 0
-129 130 132 134 136 138 -149 150 0
129 -151 0
-130 -151 0
-132 -151 0
-134 -151 0
-136 -151 0
-138 -151 0
-149 -151 0
-129 130 132 134 136 138 149 151 0
-150 152 0
-151 152 0
150 151 -152 0
152 -154 0
153 -154 0
-152 -153 154 0
152 -155 0
-153 -155 0
-152 153 155 0
-154 156 0
-155 156 0
154 155 -156 0
156 -158 0
157 -158 0
-156 -157 158 0
146 -159 0
-147 -159 0
-146 147 159 0
156 -160 0
-157 -160 0
-156 157 160 0
-148 161 0
-158 161 0
-159 161 0
-160 161 0
148 158 159 160 -161 0
161 -163 0
-162 -163 0
-161 162 163 0
161 -165 0
162 -165 0
164 -165 0
-161 -162 -164 165 0
161 -166 0
162 -166 0
-164 -166 0
-161 -162 164 166 0
109 167 0
-131 167 0
-133 167 0
-135 167 0
-137 167 0
-163 167 0
-165 167 0
-166 167 0
-109 131 133 135 137 163 165 166 -167 0
-168 169 0
168 169 0
108 -170 0
167 -170 0
169 -170 0
-108 -167 -169 170 0
-12 171 0
12 171 0
6 -172 0
171 -172 0
-6 -171 172 0
-172 173 0
6 173 0
172 -6 -173 0
173 -174 0
-21 -174 0
-173 21 174 0
173 -175 0
27 -175 0
28 -175 0
-173 -27 -28 175 0
173 -176 0
27 -176 0
-28 -176 0
30 -176 0
63 -176 0
-65 -176 0
-173 -27 28 -30 -63 65 176 0
173 -177 0
27 -177 0
-28 -177 0
30 -177 0
63 -177 0
65 -177 0
-173 -27 28 -30 -63 -65 177 0
173 -178 0
27 -178 0
-28 -178 0
30 -178 0
-63 -178 0
-173 -27 28 -30 63 178 0
173 -179 0
31 -179 0
-173 -31 179 0
173 -180 0
-31 -180 0
-173 31 180 0
-179 181 0
-180 181 0
179 180 -181 0
-34 182 0
-36 182 0
-39 182 0
-41 182 0
-43 182 0
-45 182 0
-47 182 0
-49 182 0
34 36 39 41 43 45 47 49 -182 0
181 -183 0
182 -183 0
-181 -182 183 0
181 -184 0
32 -184 0
33 -184 0
-35 -184 0
37 -184 0
-38 -184 0
40 -184 0
-46 -184 0
-48 -184 0
59 -184 0
-181 -32 -33 35 -37 38 -40 46 48 -59 184 0
-53 185 0
-54 185 0
53 54 -185 0
181 -186 0
185 -186 0
-181 -185 186 0
-183 187 0
-184 187 0
-186 187 0
183 184 186 -187 0
187 -188 0
27 -188 0
-28 -188 0
-30 -188 0
61 -188 0
-187 -27 28 30 -61 188 0
-176 189 0
-177 189 0
-178 189 0
-188 189 0
176 177 178 188 -189 0
189 -190 0
68 -190 0
69 -190 0
-189 -68 -69 190 0
189 -191 0
68 -191 0
-69 -191 0
-189 -68 69 191 0
-175 192 0
-190 192 0
-191 192 0
175 190 191 -192 0
192 -193 0
21 -193 0
25 -193 0
72 -193 0
74 -193 0
75 -193 0
-192 -21 -25 -72 -74 -75 193 0
192 -194 0
21 -194 0
25 -194 0
72 -194 0
74 -194 0
-75 -194 0
78 -194 0
-192 -21 -25 -72 -74 75 -78 194 0
-193 195 0
-194 195 0
193 194 -195 0
-82 196 0
-83 196 0
82 83 -196 0
195 -197 0
196 -197 0
-195 -196 197 0
-174 198 0
-197 198 0
174 197 -198 0
5 -199 0
198 -199 0
-5 -198 199 0
-5 -200 0
173 -200 0
5 -173 200 0
-199 201 0
-200 201 0
199 200 -201 0
201 -202 0
-88 -202 0
-201 88 202 0
201 -203 0
88 -203 0
-201 -88 203 0
-202 204 0
-203 204 0
202 203 -204 0
4 -205 0
204 -205 0
-4 -204 205 0
-4 -206 0
201 -206 0
4 -201 206 0
-205 207 0
-206 207 0
205 206 -207 0
207 -208 0
-93 -208 0
-207 93 208 0
207 -209 0
93 -209 0
-207 -93 209 0
-208 210 0
-209 210 0
208 209 -210 0
3 -211 0
210 -211 0
-3 -210 211 0
-3 -212 0
207 -212 0
3 -207 212 0
-211 213 0
-212 213 0
211 212 -213 0
213 -214 0
-98 -214 0
-213 98 214 0
213 -215 0
98 -215 0
-213 -98 215 0
-214 216 0
-215 216 0
214 215 -216 0
2 -217 0
216 -217 0
-2 -216 217 0
213 -218 0
-102 -218 0
-213 102 218 0
213 -219 0
102 -219 0
-213 -102 219 0
-218 220 0
-219 220 0
218 219 -220 0
101 -221 0
220 -221 0
-101 -220 221 0
-101 -222 0
213 -222 0
101 -213 222 0
-221 223 0
-222 223 0
221 222 -223 0
-2 -224 0
223 -224 0
2 -223 224 0
-217 225 0
-224 225 0
217 224 -225 0
225 -226 0
-109 -226 0
-225 109 226 0
225 -227 0
109 -227 0
110 -227 0
-225 -109 -110 227 0
225 -228 0
109 -228 0
-110 -228 0
-225 -109 110 228 0
-227 229 0
-228 229 0
227 228 -229 0
229 -230 0
113 -230 0
114 -230 0
-229 -113 -114 230 0
229 -231 0
113 -231 0
-114 -231 0
-229 -113 114 231 0
-230 232 0
-231 232 0
230 231 -232 0
232 -233 0
125 -233 0
126 -233 0
-232 -125 -126 233 0
232 -234 0
125 -234 0
-126 -234 0
-232 -125 126 234 0
-233 235 0
-234 235 0
233 234 -235 0
-131 236 0
-133 236 0
-135 236 0
-137 236 0
131 133 135 137 -236 0
235 -237 0
236 -237 0
-235 -236 237 0
235 -238 0
129 -238 0
-130 -238 0
-132 -238 0
-134 -238 0
-136 -238 0
-138 -238 0
149 -238 0
-235 -129 130 132 134 136 138 -149 238 0
235 -239 0
129 -239 0
-130 -239 0
-132 -239 0
-134 -239 0
-136 -239 0
-138 -239 0
-149 -239 0
-235 -129 130 132 134 136 138 149 239 0
-238 240 0
-239 240 0
238 239 -240 0
240 -241 0
152 -241 0
153 -241 0
-240 -152 -153 241 0
240 -242 0
152 -242 0
-153 -242 0
-240 -152 153 242 0
-241 243 0
-242 243 0
241 242 -243 0
243 -244 0
156 -244 0
157 -244 0
-243 -156 -157 244 0
243 -245 0
156 -245 0
-157 -245 0
-243 -156 157 245 0
235 -246 0
129 -246 0
-130 -246 0
-132 -246 0
-134 -246 0
-136 -246 0
138 -246 0
139 -246 0
-235 -129 130 132 134 136 -138 -139 246 0
235 -247 0
129 -247 0
-130 -247 0
-132 -247 0
-134 -247 0
-136 -247 0
138 -247 0
-139 -247 0
-235 -129 130 132 134 136 -138 139 247 0
-246 248 0
-247 248 0
246 247 -248 0
248 -249 0
142 -249 0
143 -249 0
-248 -142 -143 249 0
248 -250 0
142 -250 0
-143 -250 0
-248 -142 143 250 0
-249 251 0
-250 251 0
249 250 -251 0
251 -252 0
146 -252 0
147 -252 0
-251 -146 -147 252 0
251 -253 0
146 -253 0
-147 -253 0
-251 -146 147 253 0
-244 254 0
-245 254 0
-252 254 0
-253 254 0
244 245 252 253 -254 0
-165 255 0
-166 255 0
165 166 -255 0
-163 256 0
-255 256 0
163 255 -256 0
254 -257 0
256 -257 0
-254 -256 257 0
-226 258 0
-237 258 0
-257 258 0
226 237 257 -258 0
-12 259 0
12 259 0
6 -260 0
259 -260 0
-6 -259 260 0
-260 261 0
6 261 0
260 -6 -261 0
261 -262 0
-21 -262 0
-261 21 262 0
261 -263 0
27 -263 0
28 -263 0
-261 -27 -28 263 0
261 -264 0
27 -264 0
-28 -264 0
30 -264 0
63 -264 0
-65 -264 0
-261 -27 28 -30 -63 65 264 0
261 -265 0
27 -265 0
-28 -265 0
30 -265 0
63 -265 0
65 -265 0
-261 -27 28 -30 -63 -65 265 0
261 -266 0
27 -266 0
-28 -266 0
30 -266 0
-63 -266 0
-261 -27 28 -30 63 266 0
261 -267 0
31 -267 0
-261 -31 267 0
261 -268 0
-31 -268 0
-261 31 268 0
-267 269 0
-268 269 0
267 268 -269 0
-34 270 0
-36 270 0
-39 270 0
-41 270 0
-43 270 0
-45 270 0
-47 270 0
-49 270 0
34 36 39 41 43 45 47 49 -270 0
269 -271 0
270 -271 0
-269 -270 271 0
269 -272 0
32 -272 0
33 -272 0
-35 -272 0
37 -272 0
-38 -272 0
40 -272 0
-46 -272 0
-48 -272 0
59 -272 0
-269 -32 -33 35 -37 38 -40 46 48 -59 272 0
269 -273 0
185 -273 0
-269 -185 273 0
-271 274 0
-272 274 0
-273 274 0
271 272 273 -274 0
274 -275 0
27 -275 0
-28 -275 0
-30 -275 0
61 -275 0
-274 -27 28 30 -61 275 0
-264 276 0
-265 276 0
-266 276 0
-275 276 0
264 265 266 275 -276 0
276 -277 0
68 -277 0
69 -277 0
-276 -68 -69 277 0
276 -278 0
68 -278 0
-69 -278 0
-276 -68 69 278 0
-263 279 0
-277 279 0
-278 279 0
263 277 278 -279 0
279 -280 0
21 -280 0
25 -280 0
72 -280 0
74 -280 0
75 -280 0
-279 -21 -25 -72 -74 -75 280 0
279 -281 0
21 -281 0
25 -281 0
72 -281 0
74 -281 0
-75 -281 0
78 -281 0
-279 -21 -25 -72 -74 75 -78 281 0
-280 282 0
-281 282 0
280 281 -282 0
282 -283 0
196 -283 0
-282 -196 283 0
-262 284 0
-283 284 0
262 283 -284 0
5 -285 0
284 -285 0
-5 -284 285 0
-5 -286 0
261 -286 0
5 -261 286 0
-285 287 0
-286 287 0
285 286 -287 0
287 -288 0
-88 -288 0
-287 88 288 0
287 -289 0
88 -289 0
-287 -88 289 0
-288 290 0
-289 290 0
288 289 -290 0
4 -291 0
290 -291 0
-4 -290 291 0
-4 -292 0
287 -292 0
4 -287 292 0
-291 293 0
-292 293 0
291 292 -293 0
293 -294 0
-93 -294 0
-293 93 294 0
293 -295 0
93 -295 0
-293 -93 295 0
-294 296 0
-295 296 0
294 295 -296 0
3 -297 0
296 -297 0
-3 -296 297 0
-3 -298 0
293 -298 0
3 -293 298 0
-297 299 0
-298 299 0
297 298 -299 0
299 -300 0
-98 -300 0
-299 98 300 0
299 -301 0
98 -301 0
-299 -98 301 0
-300 302 0
-301 302 0
300 301 -302 0
2 -303 0
302 -303 0
-2 -302 303 0
299 -304 0
-102 -304 0
-299 102 304 0
299 -305 0
102 -305 0
-299 -102 305 0
-304 306 0
-305 306 0
304 305 -306 0
101 -307 0
306 -307 0
-101 -306 307 0
-101 -308 0
299 -308 0
101 -299 308 0
-307 309 0
-308 309 0
307 308 -309 0
-2 -310 0
309 -310 0
2 -309 310 0
-303 311 0
-310 311 0
303 310 -311 0
311 -312 0
-109 -312 0
-311 109 312 0
311 -313 0
109 -313 0
110 -313 0
-311 -109 -110 313 0
311 -314 0
109 -314 0
-110 -314 0
-311 -109 110 314 0
-313 315 0
-314 315 0
313 314 -315 0
315 -316 0
113 -316 0
114 -316 0
-315 -113 -114 316 0
315 -317 0
113 -317 0
-114 -317 0
-315 -113 114 317 0
-316 318 0
-317 318 0
316 317 -318 0
318 -319 0
125 -319 0
126 -319 0
-318 -125 -126 319 0
318 -320 0
125 -320 0
-126 -320 0
-318 -125 126 320 0
-319 321 0
-320 321 0
319 320 -321 0
-131 322 0
-133 322 0
-135 322 0
-137 322 0
131 133 135 137 -322 0
321 -323 0
322 -323 0
-321 -322 323 0
321 -324 0
129 -324 0
-130 -324 0
-132 -324 0
-134 -324 0
-136 -324 0
-138 -324 0
149 -324 0
-321 -129 130 132 134 136 138 -149 324 0
321 -325 0
129 -325 0
-130 -325 0
-132 -325 0
-134 -325 0
-136 -325 0
-138 -325 0
-149 -325 0
-321 -129 130 132 134 136 138 149 325 0
-324 326 0
-325 326 0
324 325 -326 0
326 -327 0
152 -327 0
153 -327 0
-326 -152 -153 327 0
326 -328 0
152 -328 0
-153 -328 0
-326 -152 153 328 0
-327 329 0
-328 329 0
327 328 -329 0
329 -330 0
156 -330 0
157 -330 0
-329 -156 -157 330 0
329 -331 0
156 -331 0
-157 -331 0
-329 -156 157 331 0
321 -332 0
129 -332 0
-130 -332 0
-132 -332 0
-134 -332 0
-136 -332 0
138 -332 0
139 -332 0
-321 -129 130 132 134 136 -138 -139 332 0
321 -333 0
129 -333 0
-130 -333 0
-132 -333 0
-134 -333 0
-136 -333 0
138 -333 0
-139 -333 0
-321 -129 130 132 134 136 -138 139 333 0
-332 334 0
-333 334 0
332 333 -334 0
334 -335 0
142 -335 0
143 -335 0
-334 -142 -143 335 0
334 -336 0
142 -336 0
-143 -336 0
-334 -142 143 336 0
-335 337 0
-336 337 0
335 336 -337 0
337 -338 0
146 -338 0
147 -338 0
-337 -146 -147 338 0
337 -339 0
146 -339 0
-147 -339 0
-337 -146 147 339 0
-330 340 0
-331 340 0
-338 340 0
-339 340 0
330 331 338 339 -340 0
-163 341 0
-255 341 0
163 255 -341 0
340 -342 0
341 -342 0
-340 -341 342 0
-312 343 0
-323 343 0
-342 343 0
312 323 342 -343 0
349 -351 0
350 -351 0
-349 -350 351 0
349 -352 0
-350 -352 0
-349 350 352 0
349 353 0
-351 353 0
-352 353 0
-349 351 352 -353 0
-354 355 0
354 355 0
348 -356 0
353 -356 0
355 -356 0
-348 -353 -355 356 0
-348 -357 0
353 -357 0
348 -353 357 0
-356 358 0
-357 358 0
356 357 -358 0
-359 360 0
359 360 0
-361 362 0
361 362 0
364 -366 0
-365 -366 0
-364 365 366 0
364 367 0
-366 367 0
-364 366 -367 0
-368 369 0
368 369 0
369 -371 0
370 -371 0
-369 -370 371 0
-373 374 0
373 374 0
374 -376 0
-375 -376 0
-374 375 376 0
374 -378 0
375 -378 0
377 -378 0
-374 -375 -377 378 0
374 -381 0
375 -381 0
-377 -381 0
379 -381 0
380 -381 0
-374 -375 377 -379 -380 381 0
374 -383 0
375 -383 0
-377 -383 0
379 -383 0
-380 -383 0
-382 -383 0
-374 -375 377 -379 380 382 383 0
374 -385 0
375 -385 0
-377 -385 0
-379 -385 0
-384 -385 0
-374 -375 377 379 384 385 0
374 -387 0
375 -387 0
-377 -387 0
-379 -387 0
384 -387 0
386 -387 0
-374 -375 377 379 -384 -386 387 0
374 -389 0
375 -389 0
-377 -389 0
379 -389 0
-380 -389 0
382 -389 0
388 -389 0
-374 -375 377 -379 380 -382 -388 389 0
374 -391 0
375 -391 0
-377 -391 0
379 -391 0
-380 -391 0
382 -391 0
-388 -391 0
390 -391 0
-374 -375 377 -379 380 -382 388 -390 391 0
-392 393 0
392 393 0
374 -395 0
375 -395 0
-377 -395 0
-379 -395 0
384 -395 0
-386 -395 0
393 -395 0
394 -395 0
-374 -375 377 379 -384 386 -393 -394 395 0
374 -396 0
375 -396 0
-377 -396 0
-379 -396 0
384 -396 0
-386 -396 0
393 -396 0
-394 -396 0
-374 -375 377 379 -384 386 -393 394 396 0
397 -399 0
398 -399 0
-397 -398 399 0
397 -400 0
-398 -400 0
-397 398 400 0
397 401 0
-399 401 0
-400 401 0
-397 399 400 -401 0
374 -402 0
375 -402 0
-377 -402 0
379 -402 0
-380 -402 0
382 -402 0
-388 -402 0
-390 -402 0
401 -402 0
-374 -375 377 -379 380 -382 388 390 -401 402 0
-376 403 0
-378 403 0
-381 403 0
-383 403 0
-385 403 0
-387 403 0
-389 403 0
-391 403 0
-395 403 0
-396 403 0
-402 403 0
376 378 381 383 385 387 389 391 395 396 402 -403 0
369 -404 0
-370 -404 0
-372 -404 0
403 -404 0
-369 370 372 -403 404 0
369 -406 0
-370 -406 0
372 -406 0
-405 -406 0
-369 370 -372 405 406 0
369 -408 0
-370 -408 0
372 -408 0
405 -408 0
-407 -408 0
-369 370 -372 -405 407 408 0
369 -409 0
-370 -409 0
372 -409 0
405 -409 0
407 -409 0
-369 370 -372 -405 -407 409 0
-404 410 0
-406 410 0
-408 410 0
-409 410 0
404 406 408 409 -410 0
410 -412 0
411 -412 0
-410 -411 412 0
410 -413 0
-411 -413 0
-410 411 413 0
-371 414 0
-412 414 0
-413 414 0
371 412 413 -414 0
-415 416 0
415 416 0
363 -418 0
367 -418 0
414 -418 0
416 -418 0
417 -418 0
-363 -367 -414 -416 -417 418 0
-419 420 0
419 420 0
363 -421 0
367 -421 0
414 -421 0
416 -421 0
-417 -421 0
420 -421 0
-363 -367 -414 -416 417 -420 421 0
-418 422 0
-421 422 0
418 421 -422 0
422 -424 0
423 -424 0
-422 -423 424 0
422 -425 0
-423 -425 0
-422 423 425 0
363 426 0
-424 426 0
-425 426 0
-363 424 425 -426 0
347 -427 0
358 -427 0
360 -427 0
362 -427 0
426 -427 0
-347 -358 -360 -362 -426 427 0
-347 -428 0
358 -428 0
360 -428 0
362 -428 0
347 -358 -360 -362 428 0
-427 429 0
-428 429 0
427 428 -429 0
430 431 0
-430 431 0
346 -432 0
429 -432 0
431 -432 0
-346 -429 -431 432 0
-346 -433 0
429 -433 0
346 -429 433 0
-432 434 0
-433 434 0
432 433 -434 0
435 436 0
-435 436 0
345 -437 0
434 -437 0
436 -437 0
-345 -434 -436 437 0
-345 -438 0
434 -438 0
345 -434 438 0
-437 439 0
-438 439 0
437 438 -439 0
440 441 0
-440 441 0
344 -442 0
439 -442 0
441 -442 0
-344 -439 -441 442 0
444 445 0
-444 445 0
443 -446 0
439 -446 0
445 -446 0
-443 -439 -445 446 0
-443 -447 0
439 -447 0
443 -439 447 0
-446 448 0
-447 448 0
446 447 -448 0
-344 -449 0
448 -449 0
344 -448 449 0
-442 450 0
-449 450 0
442 449 -450 0
451 -453 0
452 -453 0
-451 -452 453 0
451 -454 0
-452 -454 0
-451 452 454 0
-453 455 0
-454 455 0
453 454 -455 0
455 -457 0
456 -457 0
-455 -456 457 0
455 -458 0
-456 -458 0
-455 456 458 0
-457 459 0
-458 459 0
457 458 -459 0
459 -462 0
-460 -462 0
461 -462 0
-459 460 -461 462 0
459 -463 0
-460 -463 0
-461 -463 0
-459 460 461 463 0
459 -465 0
460 -465 0
464 -465 0
-459 -460 -464 465 0
459 -466 0
460 -466 0
-464 -466 0
-459 -460 464 466 0
-462 467 0
-463 467 0
-465 467 0
-466 467 0
462 463 465 466 -467 0
467 -469 0
468 -469 0
-467 -468 469 0
467 -470 0
-468 -470 0
-467 468 470 0
-469 471 0
-470 471 0
469 470 -471 0
471 -473 0
472 -473 0
-471 -472 473 0
471 -475 0
-472 -475 0
474 -475 0
-471 472 -474 475 0
471 -477 0
-472 -477 0
-474 -477 0
476 -477 0
-471 472 474 -476 477 0
471 -479 0
-472 -479 0
-474 -479 0
-476 -479 0
478 -479 0
-471 472 474 476 -478 479 0
471 -482 0
-472 -482 0
-474 -482 0
-476 -482 0
-478 -482 0
480 -482 0
481 -482 0
-471 472 474 476 478 -480 -481 482 0
471 -483 0
-472 -483 0
-474 -483 0
-476 -483 0
-478 -483 0
480 -483 0
-481 -483 0
-471 472 474 476 478 -480 481 483 0
-482 484 0
-483 484 0
482 483 -484 0
484 -486 0
485 -486 0
-484 -485 486 0
484 -487 0
-485 -487 0
-484 485 487 0
-486 488 0
-487 488 0
486 487 -488 0
488 -490 0
489 -490 0
-488 -489 490 0
471 -492 0
-472 -492 0
-474 -492 0
-476 -492 0
-478 -492 0
-480 -492 0
491 -492 0
-471 472 474 476 478 480 -491 492 0
471 -493 0
-472 -493 0
-474 -493 0
-476 -493 0
-478 -493 0
-480 -493 0
-491 -493 0
-471 472 474 476 478 480 491 493 0
-492 494 0
-493 494 0
492 493 -494 0
494 -496 0
495 -496 0
-494 -495 496 0
494 -497 0
-495 -497 0
-494 495 497 0
-496 498 0
-497 498 0
496 497 -498 0
498 -500 0
499 -500 0
-498 -499 500 0
488 -501 0
-489 -501 0
-488 489 501 0
498 -502 0
-499 -502 0
-498 499 502 0
-490 503 0
-500 503 0
-501 503 0
-502 503 0
490 500 501 502 -503 0
503 -505 0
-504 -505 0
-503 504 505 0
503 -507 0
504 -507 0
506 -507 0
-503 -504 -506 507 0
503 -508 0
504 -508 0
-506 -508 0
-503 -504 506 508 0
451 509 0
-473 509 0
-475 509 0
-477 509 0
-479 509 0
-505 509 0
-507 509 0
-508 509 0
-451 473 475 477 479 505 507 508 -509 0
-510 511 0
510 511 0
450 -512 0
509 -512 0
511 -512 0
-450 -509 -511 512 0
-354 513 0
354 513 0
348 -514 0
513 -514 0
-348 -513 514 0
-514 515 0
348 515 0
514 -348 -515 0
515 -516 0
-363 -516 0
-515 363 516 0
515 -517 0
369 -517 0
370 -517 0
-515 -369 -370 517 0
515 -518 0
369 -518 0
-370 -518 0
372 -518 0
405 -518 0
-407 -518 0
-515 -369 370 -372 -405 407 518 0
515 -519 0
369 -519 0
-370 -519 0
372 -519 0
405 -519 0
407 -519 0
-515 -369 370 -372 -405 -407 519 0
515 -520 0
369 -520 0
-370 -520 0
372 -520 0
-405 -520 0
-515 -369 370 -372 405 520 0
515 -521 0
373 -521 0
-515 -373 521 0
515 -522 0
-373 -522 0
-515 373 522 0
-521 523 0
-522 523 0
521 522 -523 0
-376 524 0
-378 524 0
-381 524 0
-383 524 0
-385 524 0
-387 524 0
-389 524 0
-391 524 0
376 378 381 383 385 387 389 391 -524 0
523 -525 0
524 -525 0
-523 -524 525 0
523 -526 0
374 -526 0
375 -526 0
-377 -526 0
379 -526 0
-380 -526 0
382 -526 0
-388 -526 0
-390 -526 0
401 -526 0
-523 -374 -375 377 -379 380 -382 388 390 -401 526 0
-395 527 0
-396 527 0
395 396 -527 0
523 -528 0
527 -528 0
-523 -527 528 0
-525 529 0
-526 529 0
-528 529 0
525 526 528 -529 0
529 -530 0
369 -530 0
-370 -530 0
-372 -530 0
403 -530 0
-529 -369 370 372 -403 530 0
-518 531 0
-519 531 0
-520 531 0
-530 531 0
518 519 520 530 -531 0
531 -532 0
410 -532 0
411 -532 0
-531 -410 -411 532 0
531 -533 0
410 -533 0
-411 -533 0
-531 -410 411 533 0
-517 534 0
-532 534 0
-533 534 0
517 532 533 -534 0
534 -535 0
363 -535 0
367 -535 0
414 -535 0
416 -535 0
417 -535 0
-534 -363 -367 -414 -416 -417 535 0
534 -536 0
363 -536 0
367 -536 0
414 -536 0
416 -536 0
-417 -536 0
420 -536 0
-534 -363 -367 -414 -416 417 -420 536 0
-535 537 0
-536 537 0
535 536 -537 0
-424 538 0
-425 538 0
424 425 -538 0
537 -539 0
538 -539 0
-537 -538 539 0
-516 540 0
-539 540 0
516 539 -540 0
347 -541 0
540 -541 0
-347 -540 541 0
-347 -542 0
515 -542 0
347 -515 542 0
-541 543 0
-542 543 0
541 542 -543 0
543 -544 0
-430 -544 0
-543 430 544 0
543 -545 0
430 -545 0
-543 -430 545 0
-544 546 0
-545 546 0
544 545 -546 0
346 -547 0
546 -547 0
-346 -546 547 0
-346 -548 0
543 -548 0
346 -543 548 0
-547 549 0
-548 549 0
547 548 -549 0
549 -550 0
-435 -550 0
-549 435 550 0
549 -551 0
435 -551 0
-549 -435 551 0
-550 552 0
-551 552 0
550 551 -552 0
345 -553 0
552 -553 0
-345 -552 553 0
-345 -554 0
549 -554 0
345 -549 554 0
-553 555 0
-554 555 0
553 554 -555 0
555 -556 0
-440 -556 0
-555 440 556 0
555 -557 0
440 -557 0
-555 -440 557 0
-556 558 0
-557 558 0
556 557 -558 0
344 -559 0
558 -559 0
-344 -558 559 0
555 -560 0
-444 -560 0
-555 444 560 0
555 -561 0
444 -561 0
-555 -444 561 0
-560 562 0
-561 562 0
560 561 -562 0
443 -563 0
562 -563 0
-443 -562 563 0
-443 -564 0
555 -564 0
443 -555 564 0
-563 565 0
-564 565 0
563 564 -565 0
-344 -566 0
565 -566 0
344 -565 566 0
-559 567 0
-566 567 0
559 566 -567 0
567 -568 0
-451 -568 0
-567 451 568 0
567 -569 0
451 -569 0
452 -569 0
-567 -451 -452 569 0
567 -570 0
451 -570 0
-452 -570 0
-567 -451 452 570 0
-569 571 0
-570 571 0
569 570 -571 0
571 -572 0
455 -572 0
456 -572 0
-571 -455 -456 572 0
571 -573 0
455 -573 0
-456 -573 0
-571 -455 456 573 0
-572 574 0
-573 574 0
572 573 -574 0
574 -575 0
467 -575 0
468 -575 0
-574 -467 -468 575 0
574 -576 0
467 -576 0
-468 -576 0
-574 -467 468 576 0
-575 577 0
-576 577 0
575 576 -577 0
-473 578 0
-475 578 0
-477 578 0
-479 578 0
473 475 477 479 -578 0
577 -579 0
578 -579 0
-577 -578 579 0
577 -580 0
471 -580 0
-472 -580 0
-474 -580 0
-476 -580 0
-478 -580 0
-480 -580 0
491 -580 0
-577 -471 472 474 476 478 480 -491 580 0
577 -581 0
471 -581 0
-472 -581 0
-474 -581 0
-476 -581 0
-478 -581 0
-480 -581 0
-491 -581 0
-577 -471 472 474 476 478 480 491 581 0
-580 582 0
-581 582 0
580 581 -582 0
582 -583 0
494 -583 0
495 -583 0
-582 -494 -495 583 0
582 -584 0
494 -584 0
-495 -584 0
-582 -494 495 584 0
-583 585 0
-584 585 0
583 584 -585 0
585 -586 0
498 -586 0
499 -586 0
-585 -498 -499 586 0
585 -587 0
498 -587 0
-499 -587 0
-585 -498 499 587 0
577 -588 0
471 -588 0
-472 -588 0
-474 -588 0
-476 -588 0
-478 -588 0
480 -588 0
481 -588 0
-577 -471 472 474 476 478 -480 -481 588 0
577 -589 0
471 -589 0
-472 -589 0
-474 -589 0
-476 -589 0
-478 -589 0
480 -589 0
-481 -589 0
-577 -471 472 474 476 478 -480 481 589 0
-588 590 0
-589 590 0
588 589 -590 0
590 -591 0
484 -591 0
485 -591 0
-590 -484 -485 591 0
590 -592 0
484 -592 0
-485 -592 0
-590 -484 485 592 0
-591 593 0
-592 593 0
591 592 -593 0
593 -594 0
488 -594 0
489 -594 0
-593 -488 -489 594 0
593 -595 0
488 -595 0
-489 -595 0
-593 -488 489 595 0
-586 596 0
-587 596 0
-594 596 0
-595 596 0
586 587 594 595 -596 0
-507 597 0
-508 597 0
507 508 -597 0
-505 598 0
-597 598 0
505 597 -598 0
596 -599 0
598 -599 0
-596 -598 599 0
-568 600 0
-579 600 0
-599 600 0
568 579 599 -600 0
-354 601 0
354 601 0
348 -602 0
601 -602 0
-348 -601 602 0
-602 603 0
348 603 0
602 -348 -603 0
603 -604 0
-363 -604 0
-603 363 604 0
603 -605 0
369 -605 0
370 -605 0
-603 -369 -370 605 0
603 -606 0
369 -606 0
-370 -606 0
372 -606 0
405 -606 0
-407 -606 0
-603 -369 370 -372 -405 407 606 0
603 -607 0
369 -607 0
-370 -607 0
372 -607 0
405 -607 0
407 -607 0
-603 -369 370 -372 -405 -407 607 0
603 -608 0
369 -608 0
-370 -608 0
372 -608 0
-405 -608 0
-603 -369 370 -372 405 608 0
603 -609 0
373 -609 0
-603 -373 609 0
603 -610 0
-373 -610 0
-603 373 610 0
-609 611 0
-610 611 0
609 610 -611 0
-376 612 0
-378 612 0
-381 612 0
-383 612 0
-385 612 0
-387 612 0
-389 612 0
-391 612 0
376 378 381 383 385 387 389 391 -612 0
611 -613 0
612 -613 0
-611 -612 613 0
611 -614 0
374 -614 0
375 -614 0
-377 -614 0
379 -614 0
-380 -614 0
382 -614 0
-388 -614 0
-390 -614 0
401 -614 0
-611 -374 -375 377 -379 380 -382 388 390 -401 614 0
611 -615 0
527 -615 0
-611 -527 615 0
-613 616 0
-614 616 0
-615 616 0
613 614 615 -616 0
616 -617 0
369 -617 0
-370 -617 0
-372 -617 0
403 -617 0
-616 -369 370 372 -403 617 0
-606 618 0
-607 618 0
-608 618 0
-617 618 0
606 607 608 617 -618 0
618 -619 0
410 -619 0
411 -619 0
-618 -410 -411 619 0
618 -620 0
410 -620 0
-411 -620 0
-618 -410 411 620 0
-605 621 0
-619 621 0
-620 621 0
605 619 620 -621 0
621 -622 0
363 -622 0
367 -622 0
414 -622 0
416 -622 0
417 -622 0
-621 -363 -367 -414 -416 -417 622 0
621 -623 0
363 -623 0
367 -623 0
414 -623 0
416 -623 0
-417 -623 0
420 -623 0
-621 -363 -367 -414 -416 417 -420 623 0
-622 624 0
-623 624 0
622 623 -624 0
624 -625 0
538 -625 0
-624 -538 625 0
-604 626 0
-625 626 0
604 625 -626 0
347 -627 0
626 -627 0
-347 -626 627 0
-347 -628 0
603 -628 0
347 -603 628 0
-627 629 0
-628 629 0
627 628 -629 0
629 -630 0
-430 -630 0
-629 430 630 0
629 -631 0
430 -631 0
-629 -430 631 0
-630 632 0
-631 632 0
630 631 -632 0
346 -633 0
632 -633 0
-346 -632 633 0
-346 -634 0
629 -634 0
346 -629 634 0
-633 635 0
-634 635 0
633 634 -635 0
635 -636 0
-435 -636 0
-635 435 636 0
635 -637 0
435 -637 0
-635 -435 637 0
-636 638 0
-637 638 0
636 637 -638 0
345 -639 0
638 -639 0
-345 -638 639 0
-345 -640 0
635 -640 0
345 -635 640 0
-639 641 0
-640 641 0
639 640 -641 0
641 -642 0
-440 -642 0
-641 440 642 0
641 -643 0
440 -643 0
-641 -440 643 0
-642 644 0
-643 644 0
642 643 -644 0
344 -645 0
644 -645 0
-344 -644 645 0
641 -646 0
-444 -646 0
-641 444 646 0
641 -647 0
444 -647 0
-641 -444 647 0
-646 648 0
-647 648 0
646 647 -648 0
443 -649 0
648 -649 0
-443 -648 649 0
-443 -650 0
641 -650 0
443 -641 650 0
-649 651 0
-650 651 0
649 650 -651 0
-344 -652 0
651 -652 0
344 -651 652 0
-645 653 0
-652 653 0
645 652 -653 0
653 -654 0
-451 -654 0
-653 451 654 0
653 -655 0
451 -655 0
452 -655 0
-653 -451 -452 655 0
653 -656 0
451 -656 0
-452 -656 0
-653 -451 452 656 0
-655 657 0
-656 657 0
655 656 -657 0
657 -658 0
455 -658 0
456 -658 0
-657 -455 -456 658 0
657 -659 0
455 -659 0
-456 -659 0
-657 -455 456 659 0
-658 660 0
-659 660 0
658 659 -660 0
660 -661 0
467 -661 0
468 -661 0
-660 -467 -468 661 0
660 -662 0
467 -662 0
-468 -662 0
-660 -467 468 662 0
-661 663 0
-662 663 0
661 662 -663 0
-473 664 0
-475 664 0
-477 664 0
-479 664 0
473 475 477 479 -664 0
663 -665 0
664 -665 0
-663 -664 665 0
663 -666 0
471 -666 0
-472 -666 0
-474 -666 0
-476 -666 0
-478 -666 0
-480 -666 0
491 -666 0
-663 -471 472 474 476 478 480 -491 666 0
663 -667 0
471 -667 0
-472 -667 0
-474 -667 0
-476 -667 0
-478 -667 0
-480 -667 0
-491 -667 0
-663 -471 472 474 476 478 480 491 667 0
-666 668 0
-667 668 0
666 667 -668 0
668 -669 0
494 -669 0
495 -669 0
-668 -494 -495 669 0
668 -670 0
494 -670 0
-495 -670 0
-668 -494 495 670 0
-669 671 0
-670 671 0
669 670 -671 0
671 -672 0
498 -672 0
499 -672 0
-671 -498 -499 672 0
671 -673 0
498 -673 0
-499 -673 0
-671 -498 499 673 0
663 -674 0
471 -674 0
-472 -674 0
-474 -674 0
-476 -674 0
-478 -674 0
480 -674 0
481 -674 0
-663 -471 472 474 476 478 -480 -481 674 0
663 -675 0
471 -675 0
-472 -675 0
-474 -675 0
-476 -675 0
-478 -675 0
480 -675 0
-481 -675 0
-663 -471 472 474 476 478 -480 481 675 0
-674 676 0
-675 676 0
674 675 -676 0
676 -677 0
484 -677 0
485 -677 0
-676 -484 -485 677 0
676 -678 0
484 -678 0
-485 -678 0
-676 -484 485 678 0
-677 679 0
-678 679 0
677 678 -679 0
679 -680 0
488 -680 0
489 -680 0
-679 -488 -489 680 0
679 -681 0
488 -681 0
-489 -681 0
-679 -488 489 681 0
-672 682 0
-673 682 0
-680 682 0
-681 682 0
672 673 680 681 -682 0
-505 683 0
-597 683 0
505 597 -683 0
682 -684 0
683 -684 0
-682 -683 684 0
-654 685 0
-665 685 0
-684 685 0
654 665 684 -685 0
-600 -258 -686 0
600 258 -686 0
-600 258 686 0
600 -258 686 0
-685 -343 -687 0
685 343 -687 0
-685 343 687 0
685 -343 687 0
-686 -688 0
-687 -688 0
512 -688 0
686 687 -512 688 0
-170 688 0
